db/inputs/20256223281954358631813332261506310759.smt2
(set-logic QF_FP)
(declare-const x0 (_ FloatingPoint 8 24))
(declare-const x1 (_ FloatingPoint 8 24))
(declare-const x2 (_ FloatingPoint 8 24))
(declare-const x3 (_ FloatingPoint 8 24))
(declare-const x4 (_ FloatingPoint 8 24))
(declare-const x5 (_ FloatingPoint 8 24))
(declare-const x6 (_ FloatingPoint 8 24))
(assert (fp.lt (fp.neg (fp.mul RNE (fp.sub RNE x4 x2) (fp.neg x0))) (fp.add RNE (fp.add RNE (fp.mul RNE x0 x1) (fp.sub RNE x3 x0)) (fp.add RNE (fp.neg x2) (fp.add RNE x0 x3)))))
(assert (fp.gt (fp.neg (fp.div RNE (fp.neg x5) (fp.add RNE x6 x0))) (fp.mul RNE (fp.add RNE (fp.add RNE x5 x6) (fp.sub RNE x1 x3)) (fp.div RNE (fp.div RNE x5 x5) (fp.sub RNE x1 x0)))))
(assert (fp.lt (fp.mul RNE (fp.add RNE (fp.sub RNE x4 x3) (fp.div RNE x1 x0)) (fp.neg (fp.neg x3))) (fp.mul RNE (fp.add RNE (fp.neg x5) (fp.add RNE x6 x2)) (fp.sub RNE (fp.div RNE x0 x3) (fp.mul RNE x4 x0)))))
(assert (fp.gt (fp.add RNE (fp.sub RNE (fp.add RNE x0 x4) (fp.mul RNE x1 x5)) (fp.sub RNE (fp.mul RNE x2 x3) (fp.sub RNE x0 x4))) (fp.neg (fp.sub RNE (fp.mul RNE x2 x0) (fp.div RNE x1 x0)))))
(check-sat)
