db/data/20256223281954358631813332261506310759.z3.out
sat
-------------------
63.962078867
